#
# H2 wb97x-v/aug-cc-pvtz
#
! wb97x-v aug-cc-pvtz def2/jk grid4 nofinalgrid

*xyz 0 1
H     0.7987437    0.0465073    0.0757394 
H     1.0710872    0.4089248    0.6650667 
*

%pal
nprocs 24
end

