#
# I2 wb97x-v/aug-cc-pvtz
#
! wb97x-v aug-cc-pvtz def2/jk grid4 nofinalgrid

*xyz 0 1
I    -0.8112688   -0.2430916    0.0150128 
I     1.8686027   -0.3386353   -0.0757158 
*

%pal
nprocs 24
end

