#
# 04_ScBr wb97x-v/aug-cc-pvtz
#
! wb97x-v aug-cc-pvtz def2/jk grid4 nofinalgrid

*xyz 0 1
  Sc  0.00000000000000      0.00000000000000     -0.19342129509946
  Br  0.00000000000000      0.00000000000000      2.19342129509946
*

%pal
nprocs 24
end

