#
# 53_CuO wb97x-v/aug-cc-pvtz
#
! wb97x-v aug-cc-pvtz def2/jk grid4 nofinalgrid

*xyz 0 2
  Cu  0.00000000000000      0.00000000000000      0.13870993735929
  O   0.00000000000000      0.00000000000000      1.86129006264071
*

%pal
nprocs 24
end

