#
# 69_Cu wb97x-v/aug-cc-pvtz
#
! wb97x-v aug-cc-pvtz def2/jk grid4 nofinalgrid

*xyz 0 2
Cu 0.0 0.0 0.0
*

%pal
nprocs 24
end

