#
# 72_F wb97x-v/aug-cc-pvtz
#
! wb97x-v aug-cc-pvtz def2/jk grid4 nofinalgrid

*xyz 0 2
F 0.0 0.0 0.0
*

%pal
nprocs 24
end

