#
# 05_ScO wb97m-v/aug-cc-pvtz
#
! wb97m-v aug-cc-pvtz def2/jk grid4 nofinalgrid slowconv

*xyz 0 2
  Sc  0.00000000000000      0.00000000000000      0.16492994527036
  O   0.00000000000000      0.00000000000000      1.83507005472964
*

%scf
maxiter 300
diismaxeq 15
directresetfreq 1
end

%pal
nprocs 24
end

