#
# 09_TiCl wb97m-v/aug-cc-pvtz
#
! wb97m-v aug-cc-pvtz def2/jk grid4 nofinalgrid

*xyz 0 4
  Ti  0.00000000000000      0.00000000000000     -0.11680209456005
  Cl  0.00000000000000      0.00000000000000      2.11680209456005
*

%pal
nprocs 24
end

