#
# 40_CoBr wb97m-v/aug-cc-pvtz
#
! wb97m-v aug-cc-pvtz def2/jk grid4 nofinalgrid

*xyz 0 3
  Co  0.00000000000000      0.00000000000000     -0.10327875603907
  Br  0.00000000000000      0.00000000000000      2.10327875603907
*

%pal
nprocs 24
end

