#
# 45_NiCl wb97m-v/aug-cc-pvtz
#
! wb97m-v aug-cc-pvtz def2/jk grid4 nofinalgrid

*xyz 0 2
  Ni  0.00000000000000      0.00000000000000     -0.04672403924217
  Cl  0.00000000000000      0.00000000000000      2.04672403924217
*

%pal
nprocs 24
end

