#
# 50_CuF wb97m-v/aug-cc-pvtz
#
! wb97m-v aug-cc-pvtz def2/jk grid4 nofinalgrid

*xyz 0 1
  Cu  0.00000000000000      0.00000000000000      0.12224745624860
  F   0.00000000000000      0.00000000000000      1.87775254375140
*

%pal
nprocs 24
end

