#
# 60_ZnS wb97m-v/aug-cc-pvtz
#
! wb97m-v aug-cc-pvtz def2/jk grid4 nofinalgrid

*xyz 0 1
  Zn  0.00000000000000      0.00000000000000     -0.02757018403008
  S   0.00000000000000      0.00000000000000      2.02757018403008
*

%pal
nprocs 24
end

