#
# ED39 tpss/aug-cc-pvtz
#
! tpss d3bj aug-cc-pvtz def2/j grid4 nofinalgrid

*xyz 0 1
Rh   -2.6327546   -2.1725400   -0.2240917 
Cl   -0.9440866   -1.4800543    1.0773538 
C    -3.8743844   -2.4626891   -1.5806386 
C    -3.5014300   -3.4202942    0.7351321 
O    -4.6329520   -2.6280745   -2.4309668 
O    -4.0445179   -4.2166766    1.3647092 
*

%pal
nprocs 24
end

