#
# 08_TiF tpssh/aug-cc-pvtz
#
! tpssh d3bj aug-cc-pvtz def2/jk grid4 nofinalgrid

*xyz 0 4
  Ti  0.00000000000000      0.00000000000000      0.11041057480115
  F   0.00000000000000      0.00000000000000      1.88958942519885
*

%pal
nprocs 24
end

