#
# 12_TiS tpssh/aug-cc-pvtz
#
! tpssh d3bj aug-cc-pvtz def2/jk grid4 nofinalgrid

*xyz 0 3
  Ti  0.00000000000000      0.00000000000000     -0.04354772803913
  S   0.00000000000000      0.00000000000000      2.04354772803913
*

%pal
nprocs 24
end

