#
# 16_VBr tpssh/aug-cc-pvtz
#
! tpssh d3bj aug-cc-pvtz def2/jk grid4 nofinalgrid

*xyz 0 5
  V   0.00000000000000      0.00000000000000     -0.18045152200616
  Br  0.00000000000000      0.00000000000000      2.18045152200616
*

%pal
nprocs 24
end

