#
# 26_MnF tpssh/aug-cc-pvtz
#
! tpssh d3bj aug-cc-pvtz def2/jk grid4 nofinalgrid

*xyz 0 7
  Mn  0.00000000000000      0.00000000000000      0.08590077209256
  F   0.00000000000000      0.00000000000000      1.91409922790744
*

%pal
nprocs 24
end

