#
# 29_MnO tpssh/aug-cc-pvtz
#
! tpssh d3bj aug-cc-pvtz def2/jk grid4 nofinalgrid

*xyz 0 6
  Mn  0.00000000000000      0.00000000000000      0.18548662877309
  O   0.00000000000000      0.00000000000000      1.81451337122691
*

%pal
nprocs 24
end

