#
# 30_MnS tpssh/aug-cc-pvtz
#
! tpssh d3bj aug-cc-pvtz def2/jk grid4 nofinalgrid

*xyz 0 6
  Mn  0.00000000000000      0.00000000000000     -0.02260858554296
  S   0.00000000000000      0.00000000000000      2.02260858554296
*

%pal
nprocs 24
end

