#
# 46_NiBr tpssh/aug-cc-pvtz
#
! tpssh d3bj aug-cc-pvtz def2/jk grid4 nofinalgrid

*xyz 0 2
  Ni  0.00000000000000      0.00000000000000     -0.09144593844003
  Br  0.00000000000000      0.00000000000000      2.09144593844003
*

%pal
nprocs 24
end

