#
# 52_CuBr tpssh/aug-cc-pvtz
#
! tpssh d3bj aug-cc-pvtz def2/jk grid4 nofinalgrid

*xyz 0 1
  Cu  0.00000000000000      0.00000000000000     -0.09600479667781
  Br  0.00000000000000      0.00000000000000      2.09600479667781
*

%pal
nprocs 24
end

