#
# 54_CuS tpssh/aug-cc-pvtz
#
! tpssh d3bj aug-cc-pvtz def2/jk grid4 nofinalgrid

*xyz 0 2
  Cu  0.00000000000000      0.00000000000000     -0.02892798555449
  S   0.00000000000000      0.00000000000000      2.02892798555449
*

%pal
nprocs 24
end

