#
# 64_Cr tpssh/aug-cc-pvtz
#
! tpssh d3bj aug-cc-pvtz def2/jk grid4 nofinalgrid

*xyz 0 7
Cr 0.0 0.0 0.0
*

%pal
nprocs 24
end

