#
# 01_ScH ccsd(t)/cbs
#
! ccsd(t) extrapolate(3/4,def2) verytightscf

*xyz 0 1
  Sc  0.00000000000000      0.00000000000000      0.11546868383427
  H   0.00000000000000      0.00000000000000      1.88453131616573
*

%maxcore 5000
%pal
nprocs 21
end

