#
# 02_ScF ccsd(t)/cbs
#
! ccsd(t) extrapolate(3/4,def2) verytightscf

*xyz 0 1
  Sc  0.00000000000000      0.00000000000000      0.10357126289626
  F   0.00000000000000      0.00000000000000      1.89642873710374
*

%maxcore 5000
%pal
nprocs 24
end

