#
# 03_ScCl ccsd(t)/cbs
#
! ccsd(t) extrapolate(3/4,def2) verytightscf

*xyz 0 1
  Sc  0.00000000000000      0.00000000000000     -0.11786902866458
  Cl  0.00000000000000      0.00000000000000      2.11786902866458
*

%maxcore 5000
%pal
nprocs 24
end

