#
# 04_ScBr ccsd(t)/cbs
#
! nori ccsd(t) extrapolate(3/4,def2) verytightscf

*xyz 0 1
  Sc  0.00000000000000      0.00000000000000     -0.19342129509946
  Br  0.00000000000000      0.00000000000000      2.19342129509946
*

%maxcore 5000
%pal
nprocs 24
end

