#
# 05_ScO ccsd(t)/cbs
#
! ccsd(t) extrapolate(3/4,def2) verytightscf

*xyz 0 2
  Sc  0.00000000000000      0.00000000000000      0.16492994527036
  O   0.00000000000000      0.00000000000000      1.83507005472964
*

%maxcore 5000
%pal
nprocs 24
end

