#
# 06_ScS ccsd(t)/cbs
#
! ccsd(t) extrapolate(3/4,def2) verytightscf

*xyz 0 2
  Sc  0.00000000000000      0.00000000000000     -0.07079618847288
  S   0.00000000000000      0.00000000000000      2.07079618847288
*

%maxcore 5000
%pal
nprocs 24
end

