#
# 07_TiH ccsd(t)/cbs
#
! ccsd(t) extrapolate(3/4,def2) verytightscf

*xyz 0 4
  Ti  0.00000000000000      0.00000000000000      0.11662089429905
  H   0.00000000000000      0.00000000000000      1.88337910570095
*

%maxcore 5000
%pal
nprocs 24
end

