#
# 08_TiF ccsd(t)/cbs
#
! ccsd(t) extrapolate(3/4,def2) verytightscf

*xyz 0 4
  Ti  0.00000000000000      0.00000000000000      0.11041057480115
  F   0.00000000000000      0.00000000000000      1.88958942519885
*

%maxcore 5000
%pal
nprocs 24
end

