#
# 09_TiCl ccsd(t)/cbs
#
! ccsd(t) extrapolate(3/4,def2) verytightscf

*xyz 0 4
  Ti  0.00000000000000      0.00000000000000     -0.11680209456005
  Cl  0.00000000000000      0.00000000000000      2.11680209456005
*

%maxcore 5000
%pal
nprocs 24
end

