#
# 10_TiBr ccsd(t)/cbs
#
! ccsd(t) extrapolate(3/4,def2) verytightscf

*xyz 0 4
  Ti  0.00000000000000      0.00000000000000     -0.20373332414567
  Br  0.00000000000000      0.00000000000000      2.20373332414567
*

%maxcore 5000
%pal
nprocs 24
end

