#
# 11_TiO ccsd(t)/cbs
#
! ccsd(t) extrapolate(3/4,def2) verytightscf

*xyz 0 3
  Ti  0.00000000000000      0.00000000000000      0.18878211244980
  O   0.00000000000000      0.00000000000000      1.81121788755020
*

%maxcore 5000
%pal
nprocs 24
end

