#
# 12_TiS ccsd(t)/cbs
#
! ccsd(t) extrapolate(3/4,def2) verytightscf

*xyz 0 3
  Ti  0.00000000000000      0.00000000000000     -0.04354772803913
  S   0.00000000000000      0.00000000000000      2.04354772803913
*

%maxcore 5000
%pal
nprocs 24
end

