#
# 13_VH ccsd(t)/cbs
#
! ccsd(t) extrapolate(3/4,def2) verytightscf

*xyz 0 5
  V   0.00000000000000      0.00000000000000      0.15541431667182
  H   0.00000000000000      0.00000000000000      1.84458568332818
*

%maxcore 5000
%pal
nprocs 24
end

