#
# 14_VF ccsd(t)/cbs
#
! ccsd(t) extrapolate(3/4,def2) verytightscf

*xyz 0 5
  V   0.00000000000000      0.00000000000000      0.09137228252025
  F   0.00000000000000      0.00000000000000      1.90862771747975
*

%maxcore 5000
%pal
nprocs 24
end

