#
# 15_VCl ccsd(t)/cbs
#
! ccsd(t) extrapolate(3/4,def2) verytightscf

*xyz 0 5
  V   0.00000000000000      0.00000000000000     -0.10591307408469
  Cl  0.00000000000000      0.00000000000000      2.10591307408469
*

%maxcore 5000
%pal
nprocs 24
end

