#
# 17_VO ccsd(t)/cbs
#
! ccsd(t) extrapolate(3/4,def2) verytightscf

*xyz 0 4
  V   0.00000000000000      0.00000000000000      0.20415600493149
  O   0.00000000000000      0.00000000000000      1.79584399506851
*

%maxcore 5000
%pal
nprocs 24
end

