#
# 18_VS ccsd(t)/cbs
#
! ccsd(t) extrapolate(3/4,def2) verytightscf

*xyz 0 4
  V   0.00000000000000      0.00000000000000     -0.02784157502378
  S   0.00000000000000      0.00000000000000      2.02784157502377
*

%maxcore 5000
%pal
nprocs 24
end

