#
# 19_CrH ccsd(t)/cbs
#
! ccsd(t) extrapolate(3/4,def2) verytightscf veryslowconv kdiis

*xyz 0 6
  Cr  0.00000000000000      0.00000000000000      0.17036458455703
  H   0.00000000000000      0.00000000000000      1.82963541544297
*

%maxcore 5000

%scf
maxiter 1500
diismaxeq 40
directresetfreq 1
Shift Shift 0.1 ErrOff 0.1 end
end

%pal
nprocs 24
end

%method
z_maxiter 1500
end

