#
# 20_CrF ccsd(t)/cbs
#
! ccsd(t) extrapolate(3/4,def2) verytightscf

*xyz 0 6
  Cr  0.00000000000000      0.00000000000000      0.10659678981823
  F   0.00000000000000      0.00000000000000      1.89340321018177
*

%maxcore 5000
%pal
nprocs 24
end

