#
# 21_CrCl ccsd(t)/cbs
#
! ccsd(t) extrapolate(3/4,def2) verytightscf veryslowconv kdiis

*xyz 0 6
  Cr  0.00000000000000      0.00000000000000     -0.09885250745251
  Cl  0.00000000000000      0.00000000000000      2.09885250745250
*

%maxcore 5000

%scf
MaxIter 1500
DIISMaxEq 40
directresetfreq 1
Shift Shift 0.1 ErrOff 0.1 end
end

%pal
nprocs 24
end

%method
z_maxiter 1000
end

