#
# 22_CrBr ccsd(t)/cbs
#
! ccsd(t) extrapolate(3/4,def2) verytightscf

*xyz 0 6
  Cr  0.00000000000000      0.00000000000000     -0.17198862284832
  Br  0.00000000000000      0.00000000000000      2.17198862284831
*

%maxcore 5000
%pal
nprocs 24
end

