#
# 23_CrO ccsd(t)/cbs
#
! ccsd(t) extrapolate(3/4,def2) verytightscf

*xyz 0 5
  Cr  0.00000000000000      0.00000000000000      0.19264925280896
  O   0.00000000000000      0.00000000000000      1.80735074719104
*

%maxcore 5000
%pal
nprocs 24
end

