#
# 24_CrS ccsd(t)/cbs
#
! ccsd(t) extrapolate(3/4,def2) verytightscf

*xyz 0 5
  Cr  0.00000000000000      0.00000000000000     -0.04064132858643
  S   0.00000000000000      0.00000000000000      2.04064132858643
*

%maxcore 5000
%pal
nprocs 24
end

