#
# 25_MnH ccsd(t)/cbs
#
! ccsd(t) extrapolate(3/4,def2) verytightscf

*xyz 0 7
  Mn  0.00000000000000      0.00000000000000      0.13923463274405
  H   0.00000000000000      0.00000000000000      1.86076536725595
*

%maxcore 5000
%pal
nprocs 24
end

