#
# 26_MnF ccsd(t)/cbs
#
! ccsd(t) extrapolate(3/4,def2) verytightscf

*xyz 0 7
  Mn  0.00000000000000      0.00000000000000      0.08590077209256
  F   0.00000000000000      0.00000000000000      1.91409922790744
*

%maxcore 5000
%pal
nprocs 24
end

