#
# 27_MnCl ccsd(t)/cbs
#
! ccsd(t) extrapolate(3/4,def2) verytightscf

*xyz 0 7
  Mn  0.00000000000000      0.00000000000000     -0.11585879372688
  Cl  0.00000000000000      0.00000000000000      2.11585879372688
*

%maxcore 5000
%pal
nprocs 24
end

