#
# 28_MnBr ccsd(t)/cbs
#
! ccsd(t) extrapolate(3/4,def2) verytightscf

*xyz 0 7
  Mn  0.00000000000000      0.00000000000000     -0.18897622296313
  Br  0.00000000000000      0.00000000000000      2.18897622296313
*

%maxcore 5000
%pal
nprocs 24
end

