#
# 29_MnO ccsd(t)/cbs
#
! ccsd(t) extrapolate(3/4,def2) verytightscf

*xyz 0 6
  Mn  0.00000000000000      0.00000000000000      0.18548662877309
  O   0.00000000000000      0.00000000000000      1.81451337122691
*

%maxcore 5000
%pal
nprocs 24
end

