#
# 30_MnS ccsd(t)/cbs
#
! ccsd(t) extrapolate(3/4,def2) verytightscf

*xyz 0 6
  Mn  0.00000000000000      0.00000000000000     -0.02260858554296
  S   0.00000000000000      0.00000000000000      2.02260858554296
*

%maxcore 5000
%pal
nprocs 24
end

