#
# 31_FeH ccsd(t)/cbs
#
! ccsd(t) extrapolate(3/4,def2) verytightscf

*xyz 0 4
  Fe  0.00000000000000      0.00000000000000      0.22838748047068
  H   0.00000000000000      0.00000000000000      1.77161251952932
*

%maxcore 5000
%pal
nprocs 24
end

