#
# 33_FeCl ccsd(t)/cbs
#
! ccsd(t) extrapolate(3/4,def2) verytightscf

*xyz 0 6
  Fe  0.00000000000000      0.00000000000000     -0.08894892709089
  Cl  0.00000000000000      0.00000000000000      2.08894892709089
*

%maxcore 5000
%pal
nprocs 24
end

