#
# 34_FeBr ccsd(t)/cbs
#
! ccsd(t) extrapolate(3/4,def2) verytightscf

*xyz 0 6
  Fe  0.00000000000000      0.00000000000000     -0.16252996889250
  Br  0.00000000000000      0.00000000000000      2.16252996889250
*

%maxcore 5000
%pal
nprocs 24
end

