#
# 35_FeO ccsd(t)/cbs
#
! ccsd(t) extrapolate(3/4,def2) verytightscf

*xyz 0 5
  Fe  0.00000000000000      0.00000000000000      0.19611340956582
  O   0.00000000000000      0.00000000000000      1.80388659043418
*

%maxcore 5000
%pal
nprocs 24
end

