#
# 36_FeS ccsd(t)/cbs
#
! ccsd(t) extrapolate(3/4,def2) verytightscf

*xyz 0 5
  Fe  0.00000000000000      0.00000000000000     -0.00599090985654
  S   0.00000000000000      0.00000000000000      2.00599090985654
*

%maxcore 5000
%pal
nprocs 24
end

