#
# 37_CoH ccsd(t)/cbs
#
! ccsd(t) extrapolate(3/4,def2) verytightscf

*xyz 0 3
  Co  0.00000000000000      0.00000000000000      0.23964953556340
  H   0.00000000000000      0.00000000000000      1.76035046443660
*

%maxcore 5000
%pal
nprocs 24
end

