#
# 38_CoF ccsd(t)/cbs
#
! ccsd(t) extrapolate(3/4,def2) verytightscf veryslowconv nrscf kdiis

*xyz 0 3
  Co  0.00000000000000      0.00000000000000      0.12338928235446
  F   0.00000000000000      0.00000000000000      1.87661071764554
*

%maxcore 5000

%scf
nrmaxit 1000
maxiter 1500
diismaxeq 40
directresetfreq 1
end

%pal
nprocs 24
end

%method
Z_maxiter 300
end

