#
# 39_CoCl ccsd(t)/cbs
#
! ccsd(t) extrapolate(3/4,def2) verytightscf

*xyz 0 3
  Co  0.00000000000000      0.00000000000000     -0.04491550120186
  Cl  0.00000000000000      0.00000000000000      2.04491550120186
*

%maxcore 5000
%pal
nprocs 24
end

