#
# 40_CoBr ccsd(t)/cbs
#
! ccsd(t) extrapolate(3/4,def2) verytightscf

*xyz 0 3
  Co  0.00000000000000      0.00000000000000     -0.10327875603907
  Br  0.00000000000000      0.00000000000000      2.10327875603907
*

%maxcore 5000
%pal
nprocs 24
end

