#
# 42_CoS ccsd(t)/cbs
#
! ccsd(t) extrapolate(3/4,def2) verytightscf

*xyz 0 4
  Co  0.00000000000000      0.00000000000000      0.00920129654260
  S   0.00000000000000      0.00000000000000      1.99079870345740
*

%maxcore 5000
%pal
nprocs 24
end

