#
# 43_NiH ccsd(t)/cbs
#
! ccsd(t) extrapolate(3/4,def2) verytightscf

*xyz 0 2
  Ni  0.00000000000000      0.00000000000000      0.25339129346416
  H   0.00000000000000      0.00000000000000      1.74660870653584
*

%maxcore 5000
%pal
nprocs 24
end

