#
# 44_NiF ccsd(t)/cbs
#
! ccsd(t) extrapolate(3/4,def2) verytightscf

*xyz 0 2
  Ni  0.00000000000000      0.00000000000000      0.12374716283349
  F   0.00000000000000      0.00000000000000      1.87625283716651
*

%maxcore 5000
%pal
nprocs 24
end

