#
# 45_NiCl ccsd(t)/cbs
#
! ccsd(t) extrapolate(3/4,def2) verytightscf

*xyz 0 2
  Ni  0.00000000000000      0.00000000000000     -0.04672403924217
  Cl  0.00000000000000      0.00000000000000      2.04672403924217
*

%maxcore 5000
%pal
nprocs 24
end

