#
# 46_NiBr ccsd(t)/cbs
#
! ccsd(t) extrapolate(3/4,def2) verytightscf

*xyz 0 2
  Ni  0.00000000000000      0.00000000000000     -0.09144593844003
  Br  0.00000000000000      0.00000000000000      2.09144593844003
*

%maxcore 5000
%pal
nprocs 24
end

