#
# 47_NiO ccsd(t)/cbs
#
! ccsd(t) extrapolate(3/4,def2) verytightscf

*xyz 0 3
  Ni  0.00000000000000      0.00000000000000      0.18512940996137
  O   0.00000000000000      0.00000000000000      1.81487059003863
*

%maxcore 5000
%pal
nprocs 24
end

