#
# 48_NiS ccsd(t)/cbs
#
! ccsd(t) extrapolate(3/4,def2) verytightscf slowconv

*xyz 0 3
  Ni  0.00000000000000      0.00000000000000      0.01491413562016
  S   0.00000000000000      0.00000000000000      1.98508586437984
*

%maxcore 5000

%scf
MaxIter 1500
DIISMaxEq 15
directresetfreq 1
end

%pal
nprocs 24
end

