#
# 49_CuH ccsd(t)/cbs
#
! ccsd(t) extrapolate(3/4,def2) verytightscf

*xyz 0 1
  Cu  0.00000000000000      0.00000000000000      0.26188782360473
  H   0.00000000000000      0.00000000000000      1.73811217639527
*

%maxcore 5000
%pal
nprocs 24
end

