#
# 50_CuF ccsd(t)/cbs
#
! ccsd(t) extrapolate(3/4,def2) verytightscf

*xyz 0 1
  Cu  0.00000000000000      0.00000000000000      0.12224745624860
  F   0.00000000000000      0.00000000000000      1.87775254375140
*

%maxcore 5000
%pal
nprocs 24
end

