#
# 52_CuBr ccsd(t)/cbs
#
! ccsd(t) extrapolate(3/4,def2) verytightscf

*xyz 0 1
  Cu  0.00000000000000      0.00000000000000     -0.09600479667781
  Br  0.00000000000000      0.00000000000000      2.09600479667781
*

%maxcore 5000
%pal
nprocs 24
end

