#
# 53_CuO ccsd(t)/cbs
#
! ccsd(t) extrapolate(3/4,def2) verytightscf slowconv

*xyz 0 2
  Cu  0.00000000000000      0.00000000000000      0.13870993735929
  O   0.00000000000000      0.00000000000000      1.86129006264071
*

%maxcore 5000

%scf
MaxIter 1500
DIISMaxEq 15
directresetfreq 1
end

%pal
nprocs 24
end

