#
# 54_CuS ccsd(t)/cbs
#
! ccsd(t) extrapolate(3/4,def2) verytightscf

*xyz 0 2
  Cu  0.00000000000000      0.00000000000000     -0.02892798555449
  S   0.00000000000000      0.00000000000000      2.02892798555449
*

%maxcore 5000
%pal
nprocs 24
end

