#
# 55_ZnH ccsd(t)/cbs
#
! ccsd(t) extrapolate(3/4,def2) verytightscf

*xyz 0 2
  Zn  0.00000000000000      0.00000000000000      0.19402109306576
  H   0.00000000000000      0.00000000000000      1.80597890693424
*

%maxcore 5000
%pal
nprocs 24
end

