#
# 56_ZnF ccsd(t)/cbs
#
! ccsd(t) extrapolate(3/4,def2) verytightscf

*xyz 0 2
  Zn  0.00000000000000      0.00000000000000      0.10305473518103
  F   0.00000000000000      0.00000000000000      1.89694526481897
*

%maxcore 5000
%pal
nprocs 24
end

