#
# 57_ZnCl ccsd(t)/cbs
#
! ccsd(t) extrapolate(3/4,def2) verytightscf

*xyz 0 2
  Zn  0.00000000000000      0.00000000000000     -0.08307444970280
  Cl  0.00000000000000      0.00000000000000      2.08307444970280
*

%maxcore 5000
%pal
nprocs 24
end

