#
# 58_ZnBr ccsd(t)/cbs
#
! ccsd(t) extrapolate(3/4,def2) verytightscf

*xyz 0 2
  Zn  0.00000000000000      0.00000000000000     -0.15390624723259
  Br  0.00000000000000      0.00000000000000      2.15390624723258
*

%maxcore 5000
%pal
nprocs 24
end

