#
# 60_ZnS ccsd(t)/cbs
#
! ccsd(t) extrapolate(3/4,def2) verytightscf

*xyz 0 1
  Zn  0.00000000000000      0.00000000000000     -0.02757018403008
  S   0.00000000000000      0.00000000000000      2.02757018403008
*

%maxcore 5000
%pal
nprocs 24
end

