#
# 62_Ti ccsd(t)/cbs
#
! ccsd(t) extrapolate(3/4,def2) verytightscf

*xyz 0 3
Ti 0.0 0.0 0.0
*

%maxcore 5000
%pal
nprocs 24
end

