#
# 63_V ccsd(t)/cbs
#
! ccsd(t) extrapolate(3/4,def2) verytightscf veryslowconv

*xyz 0 4
V 0.0 0.0 0.0
*

%maxcore 5000

%scf
MaxIter 1500
DIISMaxEq 40
directresetfreq 1
Shift Shift 0.1 ErrOff 0.1 end
end

%pal
nprocs 24
end

