#
# 65_Mn ccsd(t)/cbs
#
! ccsd(t) extrapolate(3/4,def2) verytightscf slowconv

*xyz 0 6
Mn 0.0 0.0 0.0
*

%maxcore 5000

%scf
MaxIter 1500
DIISMaxEq 15
directresetfreq 1
end

%pal
nprocs 24
end

