#
# 67_Co ccsd(t)/cbs
#
! ccsd(t) extrapolate(3/4,def2) verytightscf

*xyz 0 4
Co 0.0 0.0 0.0
*

%maxcore 5000
%pal
nprocs 24
end

