#
# 68_Ni ccsd(t)/cbs
#
! ccsd(t) extrapolate(3/4,def2) verytightscf nrscf kdiis

*xyz 0 3
Ni 0.0 0.0 0.0
*

%maxcore 5000

%pal
nprocs 24
end

