#
# 70_Zn ccsd(t)/cbs
#
! ccsd(t) extrapolate(3/4,def2) verytightscf

*xyz 0 1
Zn 0.0 0.0 0.0
*

%maxcore 5000
%pal
nprocs 24
end

