#
# 71_H ccsd(t)/cbs
#
! mp2 extrapolate(3/4,def2) verytightscf

*xyz 0 2
H 0.0 0.0 0.0
*

%maxcore 5000
%pal
nprocs 24
end

