#
# 72_F ccsd(t)/cbs
#
! ccsd(t) extrapolate(3/4,def2) verytightscf

*xyz 0 2
F 0.0 0.0 0.0
*

%maxcore 5000
%pal
nprocs 21
end

