#
# 75_O ccsd(t)/cbs
#
! ccsd(t) extrapolate(3/4,def2) verytightscf

*xyz 0 3
O 0.0 0.0 0.0
*

%maxcore 5000
%pal
nprocs 15
end

