#
# 06_ScS tpssh/aug-cc-pvtz
#
! tpssh d3bj aug-cc-pvtz def2/jk grid4 nofinalgrid

*xyz 0 2
  Sc  0.00000000000000      0.00000000000000     -0.07079618847288
  S   0.00000000000000      0.00000000000000      2.07079618847288
*

%pal
nprocs 24
end

