#
# 10_TiBr tpssh/aug-cc-pvtz
#
! tpssh d3bj aug-cc-pvtz def2/jk grid4 nofinalgrid

*xyz 0 4
  Ti  0.00000000000000      0.00000000000000     -0.20373332414567
  Br  0.00000000000000      0.00000000000000      2.20373332414567
*

%pal
nprocs 24
end

