#
# 21_CrCl tpssh/aug-cc-pvtz
#
! tpssh d3bj aug-cc-pvtz def2/jk grid4 nofinalgrid

*xyz 0 6
  Cr  0.00000000000000      0.00000000000000     -0.09885250745251
  Cl  0.00000000000000      0.00000000000000      2.09885250745250
*

%pal
nprocs 24
end

