#
# 28_MnBr tpssh/aug-cc-pvtz
#
! tpssh d3bj aug-cc-pvtz def2/jk grid4 nofinalgrid

*xyz 0 7
  Mn  0.00000000000000      0.00000000000000     -0.18897622296313
  Br  0.00000000000000      0.00000000000000      2.18897622296313
*

%pal
nprocs 24
end

