#
# 34_FeBr tpssh/aug-cc-pvtz
#
! tpssh d3bj aug-cc-pvtz def2/jk grid4 nofinalgrid

*xyz 0 6
  Fe  0.00000000000000      0.00000000000000     -0.16252996889250
  Br  0.00000000000000      0.00000000000000      2.16252996889250
*

%pal
nprocs 24
end

