#
# 39_CoCl tpssh/aug-cc-pvtz
#
! tpssh d3bj aug-cc-pvtz def2/jk grid4 nofinalgrid

*xyz 0 3
  Co  0.00000000000000      0.00000000000000     -0.04491550120186
  Cl  0.00000000000000      0.00000000000000      2.04491550120186
*

%pal
nprocs 24
end

