#
# 43_NiH tpssh/aug-cc-pvtz
#
! tpssh d3bj aug-cc-pvtz def2/jk grid4 nofinalgrid

*xyz 0 2
  Ni  0.00000000000000      0.00000000000000      0.25339129346416
  H   0.00000000000000      0.00000000000000      1.74660870653584
*

%pal
nprocs 24
end

