#
# 44_NiF tpssh/aug-cc-pvtz
#
! tpssh d3bj aug-cc-pvtz def2/jk grid4 nofinalgrid

*xyz 0 2
  Ni  0.00000000000000      0.00000000000000      0.12374716283349
  F   0.00000000000000      0.00000000000000      1.87625283716651
*

%pal
nprocs 24
end

