#
# 49_CuH tpssh/aug-cc-pvtz
#
! tpssh d3bj aug-cc-pvtz def2/jk grid4 nofinalgrid

*xyz 0 1
  Cu  0.00000000000000      0.00000000000000      0.26188782360473
  H   0.00000000000000      0.00000000000000      1.73811217639527
*

%pal
nprocs 24
end

