#
# 57_ZnCl tpssh/aug-cc-pvtz
#
! tpssh d3bj aug-cc-pvtz def2/jk grid4 nofinalgrid

*xyz 0 2
  Zn  0.00000000000000      0.00000000000000     -0.08307444970280
  Cl  0.00000000000000      0.00000000000000      2.08307444970280
*

%pal
nprocs 24
end

