#
# CO scanfunc/aug-cc-pvtz
#
! scanfunc d3bj aug-cc-pvtz def2/j grid4 nofinalgrid

*xyz 0 1
O    -4.3418626    2.0106287   -0.2494386 
C    -3.4561368    1.3063810   -0.1673834 
*

%pal
nprocs 24
end

