#
# CO2 scanfunc/aug-cc-pvtz
#
! scanfunc d3bj aug-cc-pvtz def2/j grid4 nofinalgrid

*xyz 0 1
C     0.1705487    0.3293777    0.0000000 
O     1.2087051   -0.2081727    0.0000000 
O    -0.8675996    0.8669312    0.0000000 
*

%pal
nprocs 24
end

