#
# H2 scanfunc/aug-cc-pvtz
#
! scanfunc d3bj aug-cc-pvtz def2/j grid4 nofinalgrid

*xyz 0 1
H     0.7987437    0.0465073    0.0757394 
H     1.0710872    0.4089248    0.6650667 
*

%pal
nprocs 24
end

