#
# 07_TiH wb97x-v/aug-cc-pvtz
#
! wb97x-v aug-cc-pvtz def2/jk grid4 nofinalgrid

*xyz 0 4
  Ti  0.00000000000000      0.00000000000000      0.11662089429905
  H   0.00000000000000      0.00000000000000      1.88337910570095
*

%pal
nprocs 24
end

