#
# 11_TiO wb97x-v/aug-cc-pvtz
#
! wb97x-v aug-cc-pvtz def2/jk grid4 nofinalgrid

*xyz 0 3
  Ti  0.00000000000000      0.00000000000000      0.18878211244980
  O   0.00000000000000      0.00000000000000      1.81121788755020
*

%pal
nprocs 24
end

