#
# 22_CrBr wb97x-v/aug-cc-pvtz
#
! wb97x-v aug-cc-pvtz def2/jk grid4 nofinalgrid

*xyz 0 6
  Cr  0.00000000000000      0.00000000000000     -0.17198862284832
  Br  0.00000000000000      0.00000000000000      2.17198862284831
*

%pal
nprocs 24
end

