#
# 31_FeH wb97x-v/aug-cc-pvtz
#
! wb97x-v aug-cc-pvtz def2/jk grid4 nofinalgrid

*xyz 0 4
  Fe  0.00000000000000      0.00000000000000      0.22838748047068
  H   0.00000000000000      0.00000000000000      1.77161251952932
*

%pal
nprocs 24
end

