#
# 37_CoH wb97x-v/aug-cc-pvtz
#
! wb97x-v aug-cc-pvtz def2/jk grid4 nofinalgrid

*xyz 0 3
  Co  0.00000000000000      0.00000000000000      0.23964953556340
  H   0.00000000000000      0.00000000000000      1.76035046443660
*

%pal
nprocs 24
end

