#
# 42_CoS wb97x-v/aug-cc-pvtz
#
! wb97x-v aug-cc-pvtz def2/jk grid4 nofinalgrid

*xyz 0 4
  Co  0.00000000000000      0.00000000000000      0.00920129654260
  S   0.00000000000000      0.00000000000000      1.99079870345740
*

%pal
nprocs 24
end

