#
# 58_ZnBr wb97x-v/aug-cc-pvtz
#
! wb97x-v aug-cc-pvtz def2/jk grid4 nofinalgrid

*xyz 0 2
  Zn  0.00000000000000      0.00000000000000     -0.15390624723259
  Br  0.00000000000000      0.00000000000000      2.15390624723258
*

%pal
nprocs 24
end

