#
# 09_TiCl scanfunc/aug-cc-pvtz
#
! scanfunc d3bj aug-cc-pvtz def2/j grid4 nofinalgrid

*xyz 0 4
  Ti  0.00000000000000      0.00000000000000     -0.11680209456005
  Cl  0.00000000000000      0.00000000000000      2.11680209456005
*

%pal
nprocs 24
end

