#
# 42_CoS scanfunc/aug-cc-pvtz
#
! scanfunc d3bj aug-cc-pvtz def2/j grid4 nofinalgrid

*xyz 0 4
  Co  0.00000000000000      0.00000000000000      0.00920129654260
  S   0.00000000000000      0.00000000000000      1.99079870345740
*

%pal
nprocs 24
end

