#
# 47_NiO scanfunc/aug-cc-pvtz
#
! scanfunc d3bj aug-cc-pvtz def2/j grid4 nofinalgrid

*xyz 0 3
  Ni  0.00000000000000      0.00000000000000      0.18512940996137
  O   0.00000000000000      0.00000000000000      1.81487059003863
*

%pal
nprocs 24
end

