#
# 52_CuBr scanfunc/aug-cc-pvtz
#
! scanfunc d3bj aug-cc-pvtz def2/j grid4 nofinalgrid

*xyz 0 1
  Cu  0.00000000000000      0.00000000000000     -0.09600479667781
  Br  0.00000000000000      0.00000000000000      2.09600479667781
*

%pal
nprocs 24
end

