#
# 56_ZnF scanfunc/aug-cc-pvtz
#
! scanfunc d3bj aug-cc-pvtz def2/j grid4 nofinalgrid

*xyz 0 2
  Zn  0.00000000000000      0.00000000000000      0.10305473518103
  F   0.00000000000000      0.00000000000000      1.89694526481897
*

%pal
nprocs 24
end

