#
# 74_Br scanfunc/aug-cc-pvtz
#
! scanfunc d3bj aug-cc-pvtz def2/j grid4 nofinalgrid

*xyz 0 2
Br 0.0 0.0 0.0
*

%pal
nprocs 24
end

