#
# 08_TiF wb97m-v/aug-cc-pvtz
#
! wb97m-v aug-cc-pvtz def2/jk grid4 nofinalgrid slowconv

*xyz 0 4
  Ti  0.00000000000000      0.00000000000000      0.11041057480115
  F   0.00000000000000      0.00000000000000      1.88958942519885
*

%scf
maxiter 300
diismaxeq 15
directresetfreq 1
end

%pal
nprocs 24
end

