#
# 14_VF wb97m-v/aug-cc-pvtz
#
! wb97m-v aug-cc-pvtz def2/jk grid4 nofinalgrid

*xyz 0 5
  V   0.00000000000000      0.00000000000000      0.09137228252025
  F   0.00000000000000      0.00000000000000      1.90862771747975
*

%pal
nprocs 24
end

