#
# 18_VS wb97m-v/aug-cc-pvtz
#
! wb97m-v aug-cc-pvtz def2/jk grid4 nofinalgrid

*xyz 0 4
  V   0.00000000000000      0.00000000000000     -0.02784157502378
  S   0.00000000000000      0.00000000000000      2.02784157502377
*

%pal
nprocs 24
end

