#
# 23_CrO wb97m-v/aug-cc-pvtz
#
! wb97m-v aug-cc-pvtz def2/jk grid4 nofinalgrid

*xyz 0 5
  Cr  0.00000000000000      0.00000000000000      0.19264925280896
  O   0.00000000000000      0.00000000000000      1.80735074719104
*

%pal
nprocs 24
end

