#
# 26_MnF wb97m-v/aug-cc-pvtz
#
! wb97m-v aug-cc-pvtz def2/jk grid4 nofinalgrid slowconv

*xyz 0 7
  Mn  0.00000000000000      0.00000000000000      0.08590077209256
  F   0.00000000000000      0.00000000000000      1.91409922790744
*

%scf
maxiter 300
diismaxeq 15
directresetfreq 1
end

%pal
nprocs 24
end

