#
# 32_FeF wb97m-v/aug-cc-pvtz
#
! wb97m-v aug-cc-pvtz def2/jk grid4 nofinalgrid

*xyz 0 6
  Fe  0.00000000000000      0.00000000000000      0.10964273788681
  F   0.00000000000000      0.00000000000000      1.89035726211319
*

%pal
nprocs 24
end

