#
# 36_FeS wb97m-v/aug-cc-pvtz
#
! wb97m-v aug-cc-pvtz def2/jk grid4 nofinalgrid

*xyz 0 5
  Fe  0.00000000000000      0.00000000000000     -0.00599090985654
  S   0.00000000000000      0.00000000000000      2.00599090985654
*

%pal
nprocs 24
end

