#
# 38_CoF wb97m-v/aug-cc-pvtz
#
! wb97m-v aug-cc-pvtz def2/jk grid4 nofinalgrid

*xyz 0 3
  Co  0.00000000000000      0.00000000000000      0.12338928235446
  F   0.00000000000000      0.00000000000000      1.87661071764554
*

%pal
nprocs 24
end

