#
# 51_CuCl wb97m-v/aug-cc-pvtz
#
! wb97m-v aug-cc-pvtz def2/jk grid4 nofinalgrid

*xyz 0 1
  Cu  0.00000000000000      0.00000000000000     -0.03459121817691
  Cl  0.00000000000000      0.00000000000000      2.03459121817691
*

%pal
nprocs 24
end

