#
# 55_ZnH wb97m-v/aug-cc-pvtz
#
! wb97m-v aug-cc-pvtz def2/jk grid4 nofinalgrid

*xyz 0 2
  Zn  0.00000000000000      0.00000000000000      0.19402109306576
  H   0.00000000000000      0.00000000000000      1.80597890693424
*

%pal
nprocs 24
end

