#
# 62_Ti wb97m-v/aug-cc-pvtz
#
! wb97m-v aug-cc-pvtz def2/jk grid4 nofinalgrid

*xyz 0 3
Ti 0.0 0.0 0.0
*

%pal
nprocs 24
end

