#
# 64_Cr wb97m-v/aug-cc-pvtz
#
! wb97m-v aug-cc-pvtz def2/jk grid4 nofinalgrid slowconv

*xyz 0 7
Cr 0.0 0.0 0.0
*

%scf
maxiter 300
diismaxeq 15
directresetfreq 1
end

%pal
nprocs 24
end

