#
# 67_Co wb97m-v/aug-cc-pvtz
#
! wb97m-v aug-cc-pvtz def2/jk grid4 nofinalgrid slowconv

*xyz 0 4
Co 0.0 0.0 0.0
*

%pal
nprocs 24
end

