#
# C2H4 wb97m-v/aug-cc-pvtz
#
! wb97m-v aug-cc-pvtz def2/jk grid4 nofinalgrid

*xyz 0 1
C    -0.0010196   -0.6653475    0.0000000 
C    -0.0010196    0.6653475   -0.0000000 
H    -0.0010162   -1.2373903   -0.9243113 
H    -0.0010162   -1.2373903    0.9243113 
H    -0.0010162    1.2373903    0.9243113 
H    -0.0010162    1.2373903   -0.9243113 
*

%pal
nprocs 24
end

