#
# 01_ScH scanfunc/aug-cc-pvtz
#
! scanfunc d3bj aug-cc-pvtz def2/j grid4 nofinalgrid

*xyz 0 1
  Sc  0.00000000000000      0.00000000000000      0.11546868383427
  H   0.00000000000000      0.00000000000000      1.88453131616573
*

%pal
nprocs 24
end

