#
# 05_ScO scanfunc/aug-cc-pvtz
#
! scanfunc d3bj aug-cc-pvtz def2/j grid4 nofinalgrid

*xyz 0 2
  Sc  0.00000000000000      0.00000000000000      0.16492994527036
  O   0.00000000000000      0.00000000000000      1.83507005472964
*

%pal
nprocs 24
end

