#
# 20_CrF scanfunc/aug-cc-pvtz
#
! scanfunc d3bj aug-cc-pvtz def2/j grid4 nofinalgrid

*xyz 0 6
  Cr  0.00000000000000      0.00000000000000      0.10659678981823
  F   0.00000000000000      0.00000000000000      1.89340321018177
*

%pal
nprocs 24
end

