#
# 27_MnCl scanfunc/aug-cc-pvtz
#
! scanfunc d3bj aug-cc-pvtz def2/j grid4 nofinalgrid

*xyz 0 7
  Mn  0.00000000000000      0.00000000000000     -0.11585879372688
  Cl  0.00000000000000      0.00000000000000      2.11585879372688
*

%pal
nprocs 24
end

