#
# 35_FeO scanfunc/aug-cc-pvtz
#
! scanfunc d3bj aug-cc-pvtz def2/j grid4 nofinalgrid

*xyz 0 5
  Fe  0.00000000000000      0.00000000000000      0.19611340956582
  O   0.00000000000000      0.00000000000000      1.80388659043418
*

%pal
nprocs 24
end

