#
# 02_ScF tpss/aug-cc-pvtz
#
! tpss d3bj aug-cc-pvtz def2/j grid4 nofinalgrid

*xyz 0 1
  Sc  0.00000000000000      0.00000000000000      0.10357126289626
  F   0.00000000000000      0.00000000000000      1.89642873710374
*

%pal
nprocs 24
end

