#
# 03_ScCl tpss/aug-cc-pvtz
#
! tpss d3bj aug-cc-pvtz def2/j grid4 nofinalgrid

*xyz 0 1
  Sc  0.00000000000000      0.00000000000000     -0.11786902866458
  Cl  0.00000000000000      0.00000000000000      2.11786902866458
*

%pal
nprocs 24
end

