#
# 08_TiF tpss/aug-cc-pvtz
#
! tpss d3bj aug-cc-pvtz def2/j grid4 nofinalgrid

*xyz 0 4
  Ti  0.00000000000000      0.00000000000000      0.11041057480115
  F   0.00000000000000      0.00000000000000      1.88958942519885
*

%pal
nprocs 24
end

