#
# 11_TiO tpss/aug-cc-pvtz
#
! tpss d3bj aug-cc-pvtz def2/j grid4 nofinalgrid

*xyz 0 3
  Ti  0.00000000000000      0.00000000000000      0.18878211244980
  O   0.00000000000000      0.00000000000000      1.81121788755020
*

%pal
nprocs 24
end

