#
# 15_VCl tpss/aug-cc-pvtz
#
! tpss d3bj aug-cc-pvtz def2/j grid4 nofinalgrid

*xyz 0 5
  V   0.00000000000000      0.00000000000000     -0.10591307408469
  Cl  0.00000000000000      0.00000000000000      2.10591307408469
*

%pal
nprocs 24
end

