#
# 19_CrH tpss/aug-cc-pvtz
#
! tpss d3bj aug-cc-pvtz def2/j grid4 nofinalgrid

*xyz 0 6
  Cr  0.00000000000000      0.00000000000000      0.17036458455703
  H   0.00000000000000      0.00000000000000      1.82963541544297
*

%pal
nprocs 24
end

