#
# 24_CrS tpss/aug-cc-pvtz
#
! tpss d3bj aug-cc-pvtz def2/j grid4 nofinalgrid

*xyz 0 5
  Cr  0.00000000000000      0.00000000000000     -0.04064132858643
  S   0.00000000000000      0.00000000000000      2.04064132858643
*

%pal
nprocs 24
end

