#
# 36_FeS tpss/aug-cc-pvtz
#
! tpss d3bj aug-cc-pvtz def2/j grid4 nofinalgrid

*xyz 0 5
  Fe  0.00000000000000      0.00000000000000     -0.00599090985654
  S   0.00000000000000      0.00000000000000      2.00599090985654
*

%pal
nprocs 24
end

