#
# 48_NiS tpss/aug-cc-pvtz
#
! tpss d3bj aug-cc-pvtz def2/j grid4 nofinalgrid

*xyz 0 3
  Ni  0.00000000000000      0.00000000000000      0.01491413562016
  S   0.00000000000000      0.00000000000000      1.98508586437984
*

%pal
nprocs 24
end

