#
# 50_CuF tpss/aug-cc-pvtz
#
! tpss d3bj aug-cc-pvtz def2/j grid4 nofinalgrid

*xyz 0 1
  Cu  0.00000000000000      0.00000000000000      0.12224745624860
  F   0.00000000000000      0.00000000000000      1.87775254375140
*

%pal
nprocs 24
end

