#
# 59_ZnO tpss/aug-cc-pvtz
#
! tpss d3bj aug-cc-pvtz def2/j grid4 nofinalgrid

*xyz 0 1
  Zn  0.00000000000000      0.00000000000000      0.14991809043900
  O   0.00000000000000      0.00000000000000      1.85008190956100
*

%pal
nprocs 24
end

