#
# 71_H tpss/aug-cc-pvtz
#
! tpss d3bj aug-cc-pvtz def2/j grid4 nofinalgrid

*xyz 0 2
H 0.0 0.0 0.0
*

%pal
nprocs 24
end

