#
# 75_O tpss/aug-cc-pvtz
#
! tpss d3bj aug-cc-pvtz def2/j grid4 nofinalgrid

*xyz 0 3
O 0.0 0.0 0.0
*

%pal
nprocs 24
end

