#
# 13_VH tpss/aug-cc-pvtz
#
! tpss d3bj aug-cc-pvtz def2/j grid4 nofinalgrid

*xyz 0 5
  V   0.00000000000000      0.00000000000000      0.15541431667182
  H   0.00000000000000      0.00000000000000      1.84458568332818
*

%pal
nprocs 24
end

