#
# 17_VO tpss/aug-cc-pvtz
#
! tpss d3bj aug-cc-pvtz def2/j grid4 nofinalgrid

*xyz 0 4
  V   0.00000000000000      0.00000000000000      0.20415600493149
  O   0.00000000000000      0.00000000000000      1.79584399506851
*

%pal
nprocs 24
end

