#
# 23_CrO tpss/aug-cc-pvtz
#
! tpss d3bj aug-cc-pvtz def2/j grid4 nofinalgrid

*xyz 0 5
  Cr  0.00000000000000      0.00000000000000      0.19264925280896
  O   0.00000000000000      0.00000000000000      1.80735074719104
*

%pal
nprocs 24
end

