#
# 25_MnH tpss/aug-cc-pvtz
#
! tpss d3bj aug-cc-pvtz def2/j grid4 nofinalgrid

*xyz 0 7
  Mn  0.00000000000000      0.00000000000000      0.13923463274405
  H   0.00000000000000      0.00000000000000      1.86076536725595
*

%pal
nprocs 24
end

