#
# 33_FeCl tpss/aug-cc-pvtz
#
! tpss d3bj aug-cc-pvtz def2/j grid4 nofinalgrid

*xyz 0 6
  Fe  0.00000000000000      0.00000000000000     -0.08894892709089
  Cl  0.00000000000000      0.00000000000000      2.08894892709089
*

%pal
nprocs 24
end

