#
# 41_CoO tpss/aug-cc-pvtz
#
! tpss d3bj aug-cc-pvtz def2/j grid4 nofinalgrid

*xyz 0 4
  Co  0.00000000000000      0.00000000000000      0.18722579130779
  O   0.00000000000000      0.00000000000000      1.81277420869221
*

%pal
nprocs 24
end

