#
# 02_ScF tpss/aug-cc-pvtz
#
! tpss d3bj aug-cc-pvtz def2/j opt xyzfile

*xyz 0 1
Sc 0.0 0.0 0.0
F 0.0 0.0 2.0
*

%pal
nprocs 24
end

