#
# 05_ScO tpss/aug-cc-pvtz
#
! tpss d3bj aug-cc-pvtz def2/j opt xyzfile

*xyz 0 2
Sc 0.0 0.0 0.0
O 0.0 0.0 2.0
*

%pal
nprocs 24
end

