#
# 22_CrBr tpss/aug-cc-pvtz
#
! tpss d3bj aug-cc-pvtz def2/j opt xyzfile

*xyz 0 6
Cr 0.0 0.0 0.0
Br 0.0 0.0 2.0
*

%pal
nprocs 24
end

