#
# 23_CrO tpss/aug-cc-pvtz
#
! tpss d3bj aug-cc-pvtz def2/j opt xyzfile

*xyz 0 5
Cr 0.0 0.0 0.0
O 0.0 0.0 2.0
*

%pal
nprocs 24
end

