#
# 39_CoCl tpss/aug-cc-pvtz
#
! tpss d3bj aug-cc-pvtz def2/j opt xyzfile

*xyz 0 3
Co 0.0 0.0 0.0
Cl 0.0 0.0 2.0
*

%pal
nprocs 24
end

